(set-logic HORN)
(set-info :source |
  Benchmark: ../golem/build/RealCodeNested/originalcodeInterpretOpenSMTsceleton2.c
  Generated by Korn 0.4 https://github.com/gernst/korn
|)


(declare-fun __assert_fail (Int Int Int Int) Bool)
(declare-fun $main_if2 (Int Int Int Int Int Int Int Int Int Int Int Int Int Int Int Int Int Int Int Int Int Int) Bool)
(declare-fun $__VERIFIER_assert_pre (Int) Bool)
(declare-fun $__VERIFIER_assert_if1 (Int Int) Bool)
(declare-fun $main_inv3 (Int Int Int Int Int Int Int Int Int Int Int) Bool)
(declare-fun $main_inv1 (Int Int Int Int Int Int Int Int Int Int Int) Bool)
(declare-fun $main_sum3 (Int Int Int Int Int Int Int Int Int Int Int) Bool)
(declare-fun $main_sum2 (Int Int Int Int Int Int Int Int Int Int Int) Bool)
(declare-fun __VERIFIER_assert (Int) Bool)
(declare-fun $main_inv2 (Int Int Int Int Int Int Int Int Int Int Int) Bool)
(declare-fun $__assert_fail_pre (Int Int Int Int) Bool)
(declare-fun $main_sum1 (Int Int Int Int Int Int Int Int Int Int Int) Bool)
(declare-fun $__VERIFIER_assert_ERROR (Int Int) Bool)

; label ERROR
(assert
  (forall ((cond!1 Int))
    (=> (and (not (not (= cond!1 0)))
             ($__VERIFIER_assert_pre cond!1))
        ($__VERIFIER_assert_ERROR cond!1 cond!1))))

; error
(assert
  (forall ((cond!1 Int) (cond!2 Int))
    (=> (and ($__VERIFIER_assert_ERROR cond!1 cond!2))
        false)))

; if else
(assert
  (forall ((cond!1 Int))
    (=> (and (not (not (not (= cond!1 0))))
             ($__VERIFIER_assert_pre cond!1))
        ($__VERIFIER_assert_if1 cond!1 cond!1))))

; post __VERIFIER_assert
(assert
  (forall ((cond!1 Int) (cond!3 Int))
    (=> (and ($__VERIFIER_assert_if1 cond!1 cond!3))
        (__VERIFIER_assert cond!1))))

; loop entry $main_inv1 (line 19)
(assert
  (forall ((newArgs!10 Int) (hasClashResult!13 Int) (i!8 Int) (oldArg!12 Int) (found!14 Int) (res!6 Int) (functionsToCheck!4 Int) (substMap!11 Int) (num!7 Int) (var!9 Int) (oldArgs!5 Int))
    (=> (and (= oldArg!12 0)
             (= substMap!11 0)
             (= newArgs!10 0)
             (= var!9 0)
             (= i!8 0)
             (= num!7 0)
             (= res!6 0)
             (<= 10 oldArgs!5)
             (<= oldArgs!5 100)
             (<= 10 functionsToCheck!4)
             (<= functionsToCheck!4 100))
        ($main_inv1 functionsToCheck!4 oldArgs!5 res!6 num!7 i!8 var!9 newArgs!10 substMap!11 oldArg!12 hasClashResult!13 found!14))))

; loop term $main_sum1 (line 19)
(assert
  (forall ((num!18 Int) (functionsToCheck!15 Int) (oldArg!23 Int) (found!25 Int) (i!19 Int) (substMap!22 Int) (var!20 Int) (oldArgs!16 Int) (res!17 Int) (hasClashResult!24 Int) (newArgs!21 Int))
    (=> (and (not (< i!19 functionsToCheck!15))
             ($main_inv1 functionsToCheck!15 oldArgs!16 res!17 num!18 i!19 var!20 newArgs!21 substMap!22 oldArg!23 hasClashResult!24 found!25))
        ($main_sum1 functionsToCheck!15 oldArgs!16 res!17 num!18 i!19 var!20 newArgs!21 substMap!22 oldArg!23 hasClashResult!24 found!25))))

; loop entry $main_inv2 (line 23)
(assert
  (forall ((num!18 Int) (functionsToCheck!15 Int) (oldArg!23 Int) (found!25 Int) (i!19 Int) (substMap!22 Int) (var!20 Int) (oldArgs!16 Int) (res!17 Int) (hasClashResult!24 Int) (newArgs!21 Int))
    (=> (and (> hasClashResult!24 0)
             (<= 0 hasClashResult!24)
             (<= hasClashResult!24 2)
             (< i!19 functionsToCheck!15)
             ($main_inv1 functionsToCheck!15 oldArgs!16 res!17 num!18 i!19 var!20 newArgs!21 substMap!22 oldArg!23 hasClashResult!24 found!25))
        ($main_inv2 functionsToCheck!15 oldArgs!16 res!17 num!18 i!19 var!20 newArgs!21 substMap!22 oldArg!23 hasClashResult!24 found!25))))

; loop term $main_sum2 (line 23)
(assert
  (forall ((found!36 Int) (num!29 Int) (res!28 Int) (i!30 Int) (functionsToCheck!26 Int) (newArgs!32 Int) (substMap!33 Int) (var!31 Int) (oldArg!34 Int) (hasClashResult!35 Int) (oldArgs!27 Int))
    (=> (and (not (< oldArg!34 oldArgs!27))
             ($main_inv2 functionsToCheck!26 oldArgs!27 res!28 num!29 i!30 var!31 newArgs!32 substMap!33 oldArg!34 hasClashResult!35 found!36))
        ($main_sum2 functionsToCheck!26 oldArgs!27 res!28 num!29 i!30 var!31 newArgs!32 substMap!33 oldArg!34 hasClashResult!35 found!36))))

; loop entry $main_inv3 (line 26)
(assert
  (forall ((found!36 Int) (num!29 Int) (res!28 Int) (i!30 Int) (functionsToCheck!26 Int) (newArgs!32 Int) (substMap!33 Int) (var!31 Int) (oldArg!34 Int) (hasClashResult!35 Int) (oldArgs!27 Int))
    (=> (and (<= 0 found!36)
             (<= found!36 10000)
             (< oldArg!34 oldArgs!27)
             ($main_inv2 functionsToCheck!26 oldArgs!27 res!28 num!29 i!30 var!31 newArgs!32 substMap!33 oldArg!34 hasClashResult!35 found!36))
        ($main_inv3 functionsToCheck!26 oldArgs!27 res!28 num!29 i!30 var!31 newArgs!32 substMap!33 oldArg!34 hasClashResult!35 found!36))))

; loop term $main_sum3 (line 26)
(assert
  (forall ((newArgs!43 Int) (found!47 Int) (var!42 Int) (res!39 Int) (oldArgs!38 Int) (i!41 Int) (oldArg!45 Int) (functionsToCheck!37 Int) (num!40 Int) (hasClashResult!46 Int) (substMap!44 Int))
    (=> (and (not (> found!47 0))
             ($main_inv3 functionsToCheck!37 oldArgs!38 res!39 num!40 i!41 var!42 newArgs!43 substMap!44 oldArg!45 hasClashResult!46 found!47))
        ($main_sum3 functionsToCheck!37 oldArgs!38 res!39 num!40 i!41 var!42 newArgs!43 substMap!44 oldArg!45 hasClashResult!46 found!47))))

; forwards $main_inv3 (line 26)
(assert
  (forall ((newArgs!43 Int) (found!47 Int) (var!42 Int) (res!39 Int) (oldArgs!38 Int) (i!41 Int) (oldArg!45 Int) (functionsToCheck!37 Int) (num!40 Int) (hasClashResult!46 Int) (substMap!44 Int))
    (=> (and (> found!47 0)
             ($main_inv3 functionsToCheck!37 oldArgs!38 res!39 num!40 i!41 var!42 newArgs!43 substMap!44 oldArg!45 hasClashResult!46 found!47))
        ($main_inv3 functionsToCheck!37 oldArgs!38 res!39 (+ num!40 1) i!41 (+ num!40 1) newArgs!43 substMap!44 oldArg!45 hasClashResult!46 (- found!47 1)))))

; forwards $main_inv2 (line 23)
(assert
  (forall ((oldArg!56 Int) (oldArgs!49 Int) (hasClashResult!57 Int) (num!51 Int) (found!58 Int) (res!50 Int) (newArgs!54 Int) (i!52 Int) (var!53 Int) (substMap!55 Int) (functionsToCheck!48 Int))
    (=> (and ($main_sum3 functionsToCheck!48 oldArgs!49 res!50 num!51 i!52 var!53 newArgs!54 substMap!55 oldArg!56 hasClashResult!57 found!58))
        ($main_inv2 functionsToCheck!48 oldArgs!49 res!50 num!51 i!52 var!53 (+ newArgs!54 1) (+ substMap!55 1) (+ oldArg!56 1) hasClashResult!57 found!58))))

; if then
(assert
  (forall ((newArgs!65 Int) (var!64 Int) (num!18 Int) (res!61 Int) (oldArgs!60 Int) (functionsToCheck!15 Int) (substMap!66 Int) (found!69 Int) (oldArg!23 Int) (functionsToCheck!59 Int) (i!63 Int) (found!25 Int) (i!19 Int) (hasClashResult!68 Int) (substMap!22 Int) (num!62 Int) (var!20 Int) (oldArgs!16 Int) (res!17 Int) (hasClashResult!24 Int) (newArgs!21 Int) (oldArg!67 Int))
    (=> (and ($main_sum2 functionsToCheck!59 oldArgs!60 res!61 num!62 i!63 var!64 newArgs!65 substMap!66 oldArg!67 hasClashResult!68 found!69))
        ($main_if2 functionsToCheck!15 oldArgs!16 res!17 num!18 i!19 var!20 newArgs!21 substMap!22 oldArg!23 hasClashResult!24 found!25 functionsToCheck!59 oldArgs!60 (+ res!61 1) num!62 i!63 var!64 newArgs!65 0 0 hasClashResult!68 found!69))))

; if else
(assert
  (forall ((num!18 Int) (functionsToCheck!15 Int) (oldArg!23 Int) (found!25 Int) (i!19 Int) (substMap!22 Int) (var!20 Int) (oldArgs!16 Int) (res!17 Int) (hasClashResult!24 Int) (newArgs!21 Int))
    (=> (and (not (> hasClashResult!24 0))
             (<= 0 hasClashResult!24)
             (<= hasClashResult!24 2)
             (< i!19 functionsToCheck!15)
             ($main_inv1 functionsToCheck!15 oldArgs!16 res!17 num!18 i!19 var!20 newArgs!21 substMap!22 oldArg!23 hasClashResult!24 found!25))
        ($main_if2 functionsToCheck!15 oldArgs!16 res!17 num!18 i!19 var!20 newArgs!21 substMap!22 oldArg!23 hasClashResult!24 found!25 functionsToCheck!15 oldArgs!16 (+ res!17 1) num!18 i!19 var!20 newArgs!21 substMap!22 oldArg!23 hasClashResult!24 found!25))))

; forwards $main_inv1 (line 19)
(assert
  (forall ((num!18 Int) (functionsToCheck!15 Int) (var!75 Int) (found!80 Int) (oldArg!23 Int) (oldArgs!71 Int) (i!19 Int) (res!72 Int) (substMap!22 Int) (i!74 Int) (substMap!77 Int) (var!20 Int) (oldArgs!16 Int) (res!17 Int) (hasClashResult!24 Int) (newArgs!21 Int) (newArgs!76 Int) (oldArg!78 Int) (functionsToCheck!70 Int) (hasClashResult!79 Int) (found!25 Int) (num!73 Int))
    (=> (and ($main_if2 functionsToCheck!15 oldArgs!16 res!17 num!18 i!19 var!20 newArgs!21 substMap!22 oldArg!23 hasClashResult!24 found!25 functionsToCheck!70 oldArgs!71 res!72 num!73 i!74 var!75 newArgs!76 substMap!77 oldArg!78 hasClashResult!79 found!80))
        ($main_inv1 functionsToCheck!70 oldArgs!71 res!72 num!73 (+ i!74 1) (+ var!75 1) newArgs!76 substMap!77 oldArg!78 hasClashResult!79 found!80))))

; VERIFIER_assert (< num!84 200)
(assert
  (forall ((var!86 Int) (res!83 Int) (functionsToCheck!81 Int) (oldArgs!82 Int) (newArgs!87 Int) (i!85 Int) (oldArg!89 Int) (substMap!88 Int) (hasClashResult!90 Int) (found!91 Int) (num!84 Int))
    (=> (and (not (< num!84 200))
             ($main_sum1 functionsToCheck!81 oldArgs!82 res!83 num!84 i!85 var!86 newArgs!87 substMap!88 oldArg!89 hasClashResult!90 found!91))
        false)))

(check-sat)
